(set-logic QF_S)
(declare-fun var0 () String)
(declare-fun var1 () String)
(declare-fun var2 () String)
(declare-fun var3 () String)
(declare-fun var4 () String)
(declare-fun var5 () String)
(declare-fun var6 () String)
(declare-fun var7 () String)
(declare-fun var8 () String)
(declare-fun var9 () String)
(declare-fun var10 () String)
(declare-fun var11 () String)
(declare-fun var12 () String)
(declare-fun var13 () String)
(declare-fun var14 () String)
(declare-fun var15 () String)
(declare-fun var16 () String)
(declare-fun var17 () String)
(declare-fun var18 () String)
(declare-fun var19 () String)
(declare-fun var20 () String)
(declare-fun var21 () String)
(declare-fun var22 () String)
(declare-fun var23 () String)
(declare-fun var24 () String)
(declare-fun var25 () String)
(declare-fun var26 () String)
(declare-fun var27 () String)
(declare-fun var28 () String)
(declare-fun var29 () String)
(declare-fun var30 () String)
(declare-fun var31 () String)
(declare-fun var32 () String)
(declare-fun var33 () String)
(declare-fun var34 () String)
(declare-fun var35 () String)
(declare-fun var36 () String)
(declare-fun var37 () String)
(declare-fun var38 () String)
(declare-fun var39 () String)
(declare-fun var40 () String)
(declare-fun var41 () String)
(declare-fun var42 () String)
(declare-fun var43 () String)
(declare-fun var44 () String)
(declare-fun var45 () String)
(declare-fun var46 () String)
(declare-fun var47 () String)
(declare-fun var48 () String)
(declare-fun var49 () String)
(declare-fun var50 () String)
(declare-fun var51 () String)
(declare-fun var52 () String)
(declare-fun var53 () String)
(declare-fun var54 () String)
(declare-fun var55 () String)
(declare-fun var56 () String)
(declare-fun var57 () String)
(declare-fun var58 () String)
(declare-fun var59 () String)
(declare-fun var60 () String)
(assert (= var0 (str.++ var1 var2)))
(assert (= var2 (str.++ var3 var4)))
(assert (= var4 (str.++ var5 var6)))
(assert (= var6 (str.++ var7 var8)))
(assert (= var8 (str.++ var9 var10)))
(assert (= var10 (str.++ var11 var12)))
(assert (= var12 (str.++ var13 var14)))
(assert (= var14 (str.++ var15 var16)))
(assert (= var16 (str.++ var17 var18)))
(assert (= var18 (str.++ var19 var20)))
(assert (= var20 (str.++ var21 var22)))
(assert (= var22 (str.++ var23 var24)))
(assert (= var24 (str.++ var25 var26)))
(assert (= var26 (str.++ var27 var28)))
(assert (= var28 (str.++ var29 var30)))
(assert (= var30 (str.++ var31 var32)))
(assert (= var32 (str.++ var33 var34)))
(assert (= var34 (str.++ var35 var36)))
(assert (= var36 (str.++ var37 var38)))
(assert (= var38 (str.++ var39 var40)))
(assert (= var40 (str.++ var41 var42)))
(assert (= var42 (str.++ var43 var44)))
(assert (= var44 (str.++ var45 var46)))
(assert (= var46 (str.++ var47 var48)))
(assert (= var48 (str.++ var49 var50)))
(assert (= var50 (str.++ var51 var52)))
(assert (= var52 (str.++ var53 var54)))
(assert (= var54 (str.++ var55 var56)))
(assert (= var56 (str.++ var57 var58)))
(assert (= var58 (str.++ var59 var60)))
(assert (= var0 "solution"))
(assert (= "u" (str.at var10 800)))
(assert (= "t" (str.at var54 335)))
(assert (= "G" (str.at var22 343)))
(assert (= "q" (str.at var26 461)))
(assert (= "%" (str.at var0 221)))
(assert (= "m" (str.at var25 208)))
(assert (= "K" (str.at var28 470)))
(assert (= "$" (str.at var44 30)))
(assert (= "6" (str.at var28 412)))
(assert (= "n" (str.at var26 481)))
(assert (= "U" (str.at var15 939)))
(assert (= "s" (str.at var32 160)))
(assert (= "," (str.at var5 311)))
(assert (= "j" (str.at var5 502)))
(assert (= "a" (str.at var10 495)))
(assert (= "4" (str.at var3 874)))
(assert (= "l" (str.at var8 553)))
(assert (= "F" (str.at var22 463)))
(assert (= "A" (str.at var41 433)))
(assert (= "X" (str.at var41 447)))
(assert (= "x" (str.at var12 232)))
(assert (= "E" (str.at var20 36)))
(assert (= "1" (str.at var60 950)))
(assert (= "b" (str.at var39 794)))
(assert (= "=" (str.at var6 420)))
(assert (= "'" (str.at var52 363)))
(assert (= "I" (str.at var48 796)))
(assert (= "_" (str.at var18 605)))
(assert (= "]" (str.at var8 643)))
(assert (= "j" (str.at var3 393)))
(assert (= "K" (str.at var38 364)))
(assert (= "\\" (str.at var45 618)))
(assert (= "b" (str.at var22 896)))
(assert (= "+" (str.at var16 833)))
(assert (= "z" (str.at var32 741)))
(assert (= "4" (str.at var24 998)))
(assert (= "$" (str.at var16 0)))
(assert (= "Q" (str.at var2 265)))
(assert (= "Z" (str.at var12 11)))
(assert (= """" (str.at var40 284)))
(assert (= "y" (str.at var12 3)))
(assert (= "h" (str.at var35 802)))
(assert (= "o" (str.at var54 339)))
(assert (= ";" (str.at var19 77)))
(assert (= "V" (str.at var52 252)))
(assert (= "o" (str.at var5 870)))
(assert (= "P" (str.at var14 562)))
(assert (= "<" (str.at var50 516)))
(assert (= "x" (str.at var7 650)))
(assert (= "L" (str.at var21 837)))
(assert (= "\\" (str.at var30 330)))
(assert (= "u" (str.at var2 11)))
(assert (= "-" (str.at var27 286)))
(assert (= "%" (str.at var40 266)))
(assert (= "#" (str.at var6 198)))
(assert (= "4" (str.at var44 35)))
(assert (= "P" (str.at var33 747)))
(assert (= "O" (str.at var7 781)))
(assert (= "I" (str.at var42 657)))
(assert (= "4" (str.at var55 66)))
(assert (= "`" (str.at var25 534)))
(assert (= "d" (str.at var20 341)))
(assert (= "'" (str.at var55 673)))
(assert (= "E" (str.at var10 42)))
(assert (= "_" (str.at var52 31)))
(assert (= "*" (str.at var19 614)))
(assert (= "L" (str.at var55 695)))
(assert (= "x" (str.at var46 56)))
(assert (= "k" (str.at var16 298)))
(assert (= "," (str.at var57 538)))
(assert (= """" (str.at var13 835)))
(assert (= "-" (str.at var2 704)))
(assert (= "k" (str.at var54 171)))
(assert (= "+" (str.at var40 644)))
(assert (= "7" (str.at var21 347)))
(assert (= """" (str.at var50 836)))
(assert (= "X" (str.at var26 994)))
(assert (= "X" (str.at var4 551)))
(assert (= "N" (str.at var50 920)))
(assert (= "-" (str.at var10 262)))
(assert (= "$" (str.at var20 761)))
(assert (= "|" (str.at var10 72)))
(assert (= "&" (str.at var17 199)))
(assert (= "B" (str.at var4 90)))
(assert (= "M" (str.at var38 512)))
(assert (= "P" (str.at var24 657)))
(assert (= "n" (str.at var21 354)))
(assert (= "o" (str.at var32 80)))
(assert (= "0" (str.at var10 373)))
(assert (= "]" (str.at var9 457)))
(assert (= "0" (str.at var6 850)))
(assert (= "i" (str.at var39 411)))
(assert (= "6" (str.at var39 520)))
(assert (= "S" (str.at var60 375)))
(assert (= "U" (str.at var34 651)))
(assert (= "@" (str.at var44 372)))
(assert (= "," (str.at var8 811)))
(assert (= "k" (str.at var55 997)))
(assert (= "H" (str.at var45 470)))
(assert (= "O" (str.at var42 810)))
(assert (= ";" (str.at var4 711)))
(assert (= "w" (str.at var2 468)))
(assert (= "F" (str.at var4 284)))
(assert (= "!" (str.at var35 684)))
(assert (= ":" (str.at var10 312)))
(assert (= "y" (str.at var17 852)))
(assert (= "G" (str.at var14 453)))
(assert (= "6" (str.at var17 221)))
(assert (= "1" (str.at var39 653)))
(assert (= "," (str.at var26 787)))
(assert (= "M" (str.at var18 87)))
(assert (= "x" (str.at var36 657)))
(assert (= "<" (str.at var14 666)))
(assert (= "j" (str.at var43 885)))
(assert (= "&" (str.at var51 993)))
(assert (= "n" (str.at var40 582)))
(assert (= "c" (str.at var0 368)))
(assert (= "?" (str.at var15 765)))
(assert (= "b" (str.at var57 363)))
(assert (= "E" (str.at var11 233)))
(assert (= "z" (str.at var13 224)))
(assert (= "u" (str.at var28 405)))
(assert (= "j" (str.at var7 305)))
(assert (= "y" (str.at var11 523)))
(assert (= "E" (str.at var38 689)))
(assert (= "x" (str.at var29 469)))
(assert (= "U" (str.at var22 5)))
(assert (= "T" (str.at var45 393)))
(assert (= "~" (str.at var26 77)))
(assert (= "Y" (str.at var50 330)))
(assert (= "A" (str.at var33 772)))
(assert (= "k" (str.at var8 28)))
(assert (= ":" (str.at var35 564)))
(assert (= "&" (str.at var60 327)))
(assert (= ";" (str.at var48 190)))
(assert (= "{" (str.at var32 220)))
(assert (= "j" (str.at var15 460)))
(assert (= "'" (str.at var11 131)))
(assert (= "n" (str.at var5 860)))
(assert (= "}" (str.at var31 480)))
(assert (= "E" (str.at var19 882)))
(assert (= "," (str.at var51 919)))
(assert (= "A" (str.at var59 363)))
(assert (= "E" (str.at var47 712)))
(assert (= "!" (str.at var34 222)))
(assert (= "P" (str.at var39 864)))
(assert (= ">" (str.at var52 405)))
(assert (= "M" (str.at var0 941)))
(assert (= "X" (str.at var0 111)))
(assert (= "p" (str.at var36 326)))
(assert (= "E" (str.at var46 805)))
(assert (= "`" (str.at var39 582)))
(assert (= "(" (str.at var4 619)))
(assert (= "r" (str.at var14 543)))
(assert (= "E" (str.at var50 406)))
(assert (= "]" (str.at var19 280)))
(assert (= "b" (str.at var24 977)))
(assert (= "8" (str.at var31 477)))
(assert (= "r" (str.at var22 894)))
(assert (= "?" (str.at var47 217)))
(assert (= "y" (str.at var41 731)))
(check-sat)
(get-model)